20
 N1C3W1_A 
 150 50 0 
100
100
96
94
90
88
87
85
83
81
80
80
77
74
65
62
62
62
61
59
59
57
54
51
45
45
40
38
37
37
37
36
29
29
27
26
22
22
21
17
14
14
8
7
6
5
5
3
3
1
 N1C3W1_B 
 150 50 0 
95
88
88
86
85
84
84
82
81
79
72
71
69
69
69
68
68
65
61
61
61
61
60
58
57
57
53
44
43
36
29
29
27
23
23
22
21
17
14
14
14
13
12
11
11
6
5
3
3
2
 N1C3W1_C 
 150 50 0 
100
99
95
94
87
85
85
83
81
81
80
80
77
76
75
74
73
73
72
66
63
60
52
50
47
45
44
43
39
39
38
38
35
34
33
32
25
25
23
20
17
15
15
14
12
11
10
10
8
8
 N1C3W1_D 
 150 50 0 
99
96
95
95
92
91
90
86
86
86
85
80
77
77
76
76
71
70
70
69
68
64
64
61
60
60
56
55
53
52
50
48
44
41
40
38
38
37
35
21
19
14
12
9
6
6
6
4
3
2
 N1C3W1_E 
 150 50 0 
99
97
97
96
95
89
88
83
81
81
79
77
76
75
74
61
55
51
50
50
48
48
47
46
45
42
42
38
35
34
32
32
31
26
25
21
14
13
11
10
9
9
9
8
8
7
5
5
5
1
 N1C3W1_F 
 150 50 0 
100
98
97
96
95
93
92
88
88
86
84
83
80
80
78
77
76
76
76
74
73
70
69
68
65
64
63
62
62
61
60
60
53
51
51
42
41
28
26
23
22
21
16
13
9
9
7
5
2
2
 N1C3W1_G 
 150 50 0 
97
92
91
91
88
86
85
84
79
76
75
67
66
65
62
61
61
58
54
54
50
47
46
45
44
44
42
37
37
30
27
27
26
23
23
21
20
20
19
13
12
11
10
9
9
6
5
5
5
1
 N1C3W1_H 
 150 50 0 
99
91
89
89
89
88
86
85
83
82
80
80
80
80
78
76
73
69
67
66
65
65
64
64
60
60
57
56
56
52
51
45
43
42
42
38
37
32
32
32
29
28
26
25
18
15
10
6
6
4
 N1C3W1_I 
 150 50 0 
100
98
97
95
87
87
87
84
80
77
76
73
71
66
66
62
61
60
60
60
57
56
53
52
51
49
46
44
44
43
43
38
33
31
30
29
29
28
24
22
18
17
16
16
16
15
12
8
3
2
 N1C3W1_J 
 150 50 0 
99
98
92
91
90
88
87
86
82
80
77
74
73
72
72
71
69
69
63
61
55
54
53
50
48
48
48
37
37
37
34
33
32
29
26
22
19
17
15
14
10
9
7
3
3
2
2
2
1
1
 N1C3W1_K 
 150 50 0 
100
96
95
94
94
92
92
90
86
84
77
73
66
66
59
56
56
56
55
54
53
53
53
52
49
48
47
45
45
45
41
41
41
37
36
24
22
21
20
18
16
15
14
14
13
12
10
8
4
1
 N1C3W1_L 
 150 50 0 
99
99
93
93
90
90
87
87
81
81
80
78
77
76
68
64
63
62
60
60
59
58
53
52
52
47
45
44
44
42
39
39
36
35
29
29
28
26
25
18
9
7
7
7
7
6
5
5
5
1
 N1C3W1_M 
 150 50 0 
100
100
99
94
90
88
88
86
86
84
84
80
77
73
70
69
69
66
66
61
58
58
57
57
52
51
47
44
43
42
36
34
28
27
26
25
21
18
18
17
13
12
12
12
11
9
8
7
4
4
 N1C3W1_N 
 150 50 0 
98
97
91
90
90
90
88
87
87
85
83
81
79
78
78
76
74
74
73
72
68
66
64
63
61
57
56
56
56
55
55
48
48
46
44
44
39
37
35
35
34
32
31
29
27
26
19
18
17
11
 N1C3W1_O 
 150 50 0 
96
96
96
94
94
87
86
84
84
83
82
82
80
77
75
57
57
56
55
54
52
51
48
48
48
46
46
45
42
34
34
34
32
32
30
23
16
16
16
15
15
14
12
10
6
6
3
1
1
1
 N1C3W1_P 
 150 50 0 
99
99
98
98
96
93
93
92
91
89
85
82
80
79
78
73
73
71
70
69
69
61
61
55
54
52
47
47
46
43
43
42
41
38
36
35
34
28
27
25
24
21
17
13
10
9
6
5
5
2
 N1C3W1_Q 
 150 50 0 
100
100
100
100
98
96
95
93
90
89
86
86
85
85
84
81
79
78
74
70
69
68
66
62
62
61
58
56
55
54
53
51
48
44
42
40
36
35
33
32
31
24
23
23
18
13
12
4
4
2
 N1C3W1_R 
 150 50 0 
100
99
97
97
97
95
94
91
88
87
87
86
86
86
82
77
77
75
74
73
72
71
70
65
63
62
60
59
56
56
51
50
50
49
49
47
47
46
36
29
23
23
21
20
18
16
13
11
9
3
 N1C3W1_S 
 150 50 0 
95
90
88
87
86
83
79
78
76
75
71
70
70
68
64
63
63
61
59
58
57
57
53
52
52
49
44
40
36
36
32
29
25
23
23
22
22
20
19
19
19
17
16
11
11
7
6
5
3
2
 N1C3W1_T 
 150 50 0 
98
98
97
96
93
93
92
89
83
82
76
76
76
74
70
69
67
66
66
65
62
60
58
56
56
55
55
54
53
51
49
47
42
35
31
31
26
22
22
22
18
17
17
17
16
9
8
5
4
4
